c nIsolatedPIs 20
c maxPI 12
p cnf 33 64
c gate 13 -6 -12 0
-6 -13 0
-12 -13 0
6 12 13 0
c gate 14 -3 -9 0
-3 -14 0
-9 -14 0
3 9 14 0
c gate 15 2 8 0
2 -15 0
8 -15 0
-2 -8 15 0
c gate 16 -2 -8 0
-2 -16 0
-8 -16 0
2 8 16 0
c gate 17 1 7 0
1 -17 0
7 -17 0
-1 -7 17 0
c gate 18 -16 17 0
-16 -18 0
17 -18 0
16 -17 18 0
c gate 19 -15 -18 0
-15 -19 0
-18 -19 0
15 18 19 0
c gate 20 -14 -19 0
-14 -20 0
-19 -20 0
14 19 20 0
c gate 21 4 10 0
4 -21 0
10 -21 0
-4 -10 21 0
c gate 22 3 9 0
3 -22 0
9 -22 0
-3 -9 22 0
c gate 23 -21 -22 0
-21 -23 0
-22 -23 0
21 22 23 0
c gate 24 -20 23 0
-20 -24 0
23 -24 0
20 -23 24 0
c gate 25 -4 -10 0
-4 -25 0
-10 -25 0
4 10 25 0
c gate 26 -5 -11 0
-5 -26 0
-11 -26 0
5 11 26 0
c gate 27 -25 -26 0
-25 -27 0
-26 -27 0
25 26 27 0
c gate 28 -24 27 0
-24 -28 0
27 -28 0
24 -27 28 0
c gate 29 6 12 0
6 -29 0
12 -29 0
-6 -12 29 0
c gate 30 5 11 0
5 -30 0
11 -30 0
-5 -11 30 0
c gate 31 -29 -30 0
-29 -31 0
-30 -31 0
29 30 31 0
c gate 32 -28 31 0
-28 -32 0
31 -32 0
28 -31 32 0
c gate 33 -13 32 0
-13 -33 0
32 -33 0
13 -32 33 0
c PO
33 0
